15 965
525 7 442 7 285 7 105 9 7 13
525 7 476 7 388 7 247 9 76 11 911 15 755 21 601 35
525 7 476 7 388 7 247 9 76 11 911 15 755 21 601 35
525 7 476 7 388 7 247 9 76 11 911 15 755 21 601 35
525 7 482 7 394 7 212 9 29 11 822 15 623 21
535 8 495 8 401 9 236 10 73 14 906 18 803 22
535 8 493 8 396 9 228 10 178 14 38 24
520 7 476 7 355 7 196 12
520 7 476 7 355 7 196 12
525 7 484 7 368 7 123 9 857 11 631 18
525 7 504 7 362 7 209 9 25 11 818 15 624 21
525 7 504 7 362 7 209 9 25 11 818 15 624 21
525 7 504 7 362 7 209 9 25 11 818 15 624 21
525 7 482 7 394 7 212 9 29 11 822 15 623 21
528 7 482 7 301 7 114 9 881 11 697 15 581 22
